nbTeams = 24;

nbRounds = 182;

nbTeamGames = 56;

M = [
[0,1,2,2,1,2,1,1,1,1,1,1,1,2,1,1,1,1,1,1,2,1,1,1],
[1,0,1,1,2,1,1,1,1,1,1,2,1,1,2,1,2,1,1,1,1,1,2,1],
[2,1,0,2,1,2,1,1,1,1,1,1,1,2,1,1,1,1,1,1,2,1,1,1],
[2,1,2,0,1,2,1,1,1,1,1,1,1,2,1,1,1,1,1,1,2,1,1,1],
[1,2,1,1,0,1,1,1,1,1,1,2,1,1,2,1,2,1,1,1,1,1,2,1],
[2,1,2,2,1,0,1,1,1,1,1,1,1,2,1,1,1,1,1,1,2,1,1,1],
[1,1,1,1,1,1,0,1,2,2,1,1,1,1,1,2,1,1,2,1,1,2,1,1],
[1,1,1,1,1,1,1,0,1,1,2,1,2,1,1,1,1,2,1,2,1,1,1,2],
[1,1,1,1,1,1,2,1,0,2,1,1,1,1,1,2,1,1,2,1,1,2,1,1],
[1,1,1,1,1,1,2,1,2,0,1,1,1,1,1,2,1,1,2,1,1,2,1,1],
[1,1,1,1,1,1,1,2,1,1,0,1,2,1,1,1,1,2,1,2,1,1,1,2],
[1,2,1,1,2,1,1,1,1,1,1,0,1,1,2,1,2,1,1,1,1,1,2,1],
[1,1,1,1,1,1,1,2,1,1,2,1,0,1,1,1,1,2,1,2,1,1,1,2],
[2,1,2,2,1,2,1,1,1,1,1,1,1,0,1,1,1,1,1,1,2,1,1,1],
[1,2,1,1,2,1,1,1,1,1,1,2,1,1,0,1,2,1,1,1,1,1,2,1],
[1,1,1,1,1,1,2,1,2,2,1,1,1,1,1,0,1,1,2,1,1,2,1,1],
[1,2,1,1,2,1,1,1,1,1,1,2,1,1,2,1,0,1,1,1,1,1,2,1],
[1,1,1,1,1,1,1,2,1,1,2,1,2,1,1,1,1,0,1,2,1,1,1,2],
[1,1,1,1,1,1,2,1,2,2,1,1,1,1,1,2,1,1,0,1,1,2,1,1],
[1,1,1,1,1,1,1,2,1,1,2,1,2,1,1,1,1,2,1,0,1,1,1,2],
[2,1,2,2,1,2,1,1,1,1,1,1,1,2,1,1,1,1,1,1,0,1,1,1],
[1,1,1,1,1,1,2,1,2,2,1,1,1,1,1,2,1,1,2,1,1,0,1,1],
[1,2,1,1,2,1,1,1,1,1,1,2,1,1,2,1,2,1,1,1,1,1,0,1],
[1,1,1,1,1,1,1,2,1,1,2,1,2,1,1,1,1,2,1,2,1,1,1,0]
];

D = [
[0,6394,1396,698,6121,2252,50,25,700,859,907,18,231,1377,867,366,2790,636,1386,25,1144,379,1466,25],
[6394,0,5066,5770,629,4533,6438,6416,7063,7019,6760,6399,6195,5274,5623,6214,3715,6527,7024,6416,5411,6038,5072,6416],
[1396,5066,0,715,4853,948,1432,1420,2095,2189,2079,1405,1248,395,559,1355,1399,1774,2080,1420,371,1017,188,1420],
[698,5770,715,0,5536,1556,729,723,1394,1536,1496,710,599,690,169,761,2113,1189,1527,723,449,324,768,723],
[6121,629,4853,5536,0,4436,6167,6142,6765,6683,6401,6124,5910,5103,5400,5908,3573,6189,6880,6142,5212,5781,4884,6141],
[2252,4533,948,1556,4436,0,2280,2277,2939,3089,3012,2265,2145,880,1388,2277,887,2704,2500,2277,1108,1880,811,2277],
[50,6438,1432,729,6167,2280,0,41,665,845,914,56,280,1403,898,409,2828,652,1347,41,1173,415,1498,42],
[25,6416,1420,723,6142,2277,41,0,675,835,889,18,245,1402,892,368,2814,621,1388,0,1169,404,1491,1],
[700,7063,2095,1394,6765,2939,665,675,0,398,714,690,872,2060,1562,858,3488,690,1482,675,1835,1078,2163,675],
[859,7019,2189,1536,6683,3089,845,835,398,0,363,843,946,2225,1702,844,3548,494,1873,835,1984,1213,2287,835],
[907,6760,2079,1496,6401,3012,914,889,714,363,0,889,903,2179,1653,739,3384,309,2123,889,1931,1191,2201,888],
[18,6399,1405,710,6124,2265,56,18,690,843,889,0,227,1391,879,353,2799,618,1400,18,1157,390,1477,18],
[231,6195,1248,599,5910,2145,280,245,872,946,903,227,0,1288,762,201,2626,599,1577,245,1044,289,1341,244],
[1377,5274,395,690,5103,880,1403,1402,2060,2225,2179,1391,1288,0,527,1440,1560,1871,1781,1402,249,1012,249,1402],
[867,5623,559,169,5400,1388,898,892,1562,1702,1653,879,762,527,0,915,1953,1345,1601,892,282,492,601,892],
[366,6214,1355,761,5908,2277,409,368,858,844,739,353,201,1440,915,0,2703,430,1750,368,1192,476,1467,367],
[2790,3715,1399,2113,3573,887,2828,2814,3488,3548,3384,2799,2626,1560,1953,2703,0,3096,3315,2814,1715,2414,1371,2814],
[636,6527,1774,1189,6189,2704,652,621,690,494,309,618,599,1871,1345,430,3096,0,1945,621,1622,888,1894,620],
[1386,7024,2080,1527,6880,2500,1347,1388,1482,1873,2123,1400,1577,1781,1601,1750,3315,1945,0,1388,1709,1461,2012,1388],
[25,6416,1420,723,6142,2277,41,0,675,835,889,18,245,1402,892,368,2814,621,1388,0,1169,404,1491,1],
[1144,5411,371,449,5212,1108,1173,1169,1835,1984,1931,1157,1044,249,282,1192,1715,1622,1709,1169,0,773,344,1169],
[379,6038,1017,324,5781,1880,415,404,1078,1213,1191,390,289,1012,492,476,2414,888,1461,404,773,0,1088,404],
[1466,5072,188,768,4884,811,1498,1491,2163,2287,2201,1477,1341,249,601,1467,1371,1894,2012,1491,344,1088,0,1491],
[25,6416,1420,723,6141,2277,42,1,675,835,888,18,244,1402,892,367,2814,620,1388,1,1169,404,1491,0]
];

HAP = [
[0,1,0,1,0,1,0,1,0,0,0,2,0,2,0,0,0,1,0,1,0,0,0,0,1,0,0,0,0,2,0,2,0,2,0,2,0,0,0,1,0,0,1,0,1,0,1,0,0,2,0,2,0,2,0,2,0,0,1,1,0,0,2,0,2,0,2,0,2,0,0,0,0,0,0,1,0,1,0,0,1,0,0,1,0,0,0,0,2,0,2,0,2,0,0,1,0,1,0,1,1,0,0,2,0,0,0,0,0,0,0,0,2,2,0,2,0,0,1,0,1,0,0,0,1,0,1,0,0,2,0,0,2,0,2,0,0,0,1,0,1,0,0,1,0,0,0,0,0,0,0,0,0,0,0,0,0,0,0,0,0,0,0,0,0,0,0,0,0,0,0,0,0,0,0,2,0,2,0,2,0,2],
[0,2,0,2,0,2,0,2,0,0,0,0,0,0,1,0,1,0,1,0,1,0,0,2,0,2,0,2,0,0,1,0,1,0,0,1,0,1,0,0,2,0,2,0,2,0,2,0,0,0,1,0,1,1,0,1,1,0,1,0,1,0,0,0,0,0,0,0,2,0,0,0,0,0,0,2,0,2,0,2,0,0,0,1,0,1,0,1,0,0,2,0,2,0,0,1,0,0,1,0,0,2,0,2,0,0,0,0,0,0,2,0,0,1,0,1,0,1,0,1,0,0,0,0,2,0,2,2,0,2,0,0,1,0,1,0,0,0,0,1,0,1,0,0,0,0,0,0,0,0,0,0,0,0,0,0,0,0,0,0,0,0,0,0,0,0,0,0,0,0,0,0,0,0,0,2,0,2,0,2,0,2],
[0,1,0,1,0,0,1,0,0,2,0,2,0,0,0,1,0,1,0,0,0,2,2,0,2,0,2,0,0,1,0,1,0,1,0,0,0,2,0,2,0,0,1,0,1,1,0,0,1,0,0,2,0,2,0,2,0,0,0,1,0,0,1,0,1,0,0,0,2,0,0,0,0,0,0,2,0,0,1,1,0,0,0,0,1,0,0,2,0,2,0,2,0,0,1,0,1,0,0,2,0,2,0,2,0,0,0,0,0,0,1,0,1,0,0,2,0,2,0,0,1,0,0,0,1,1,0,0,0,0,2,0,2,0,2,0,0,0,1,0,1,0,1,0,0,0,0,0,0,0,0,0,0,0,0,0,0,0,0,0,0,0,0,0,0,0,0,0,0,0,0,0,0,0,2,0,2,0,0,2,0,2],
[0,2,0,2,0,2,0,2,0,0,1,0,1,0,0,2,0,2,0,0,1,0,1,0,0,1,0,0,0,2,0,2,0,2,0,0,1,0,1,0,1,0,1,0,0,2,0,2,0,2,0,0,1,0,1,1,0,0,2,0,2,0,2,1,1,0,1,0,1,0,0,0,0,0,0,2,0,2,0,2,0,2,1,0,0,1,0,1,0,0,2,0,2,0,2,0,2,0,0,1,0,1,0,1,0,0,0,0,0,0,2,0,2,0,0,1,0,1,0,0,0,0,0,0,0,0,0,0,0,0,0,0,0,0,0,0,0,0,0,2,0,2,0,2,0,0,0,0,0,0,0,0,0,0,0,0,0,0,0,0,0,0,0,0,0,0,0,0,0,0,0,0,0,0,0,1,0,1,0,1,0,1],
[0,2,0,2,0,2,0,2,0,0,0,1,0,0,1,0,1,0,1,0,0,2,0,2,0,2,0,2,0,0,0,0,1,0,1,0,0,1,0,1,0,0,2,0,2,2,0,0,1,0,1,0,0,2,0,2,0,0,1,0,1,0,1,0,0,2,0,2,0,0,0,0,0,0,0,2,0,2,0,0,0,1,0,1,0,1,0,0,0,0,1,0,1,1,0,0,1,0,0,2,0,2,0,2,0,0,0,0,0,0,2,0,0,1,0,1,0,1,0,1,0,0,0,0,0,2,0,2,0,2,0,0,1,0,1,0,0,0,0,1,0,1,0,0,0,0,0,0,0,0,0,0,0,0,0,0,0,0,0,0,0,0,0,0,0,0,0,0,0,0,0,0,0,0,0,2,0,2,0,2,0,2],
[0,0,0,1,0,1,0,1,0,1,0,0,2,0,2,0,2,0,0,0,1,0,0,2,0,2,0,0,0,0,0,1,0,1,0,1,0,0,2,0,2,0,2,0,2,0,0,1,0,0,1,0,1,0,1,0,0,2,0,2,0,2,0,0,1,0,1,0,1,0,0,0,0,0,0,2,0,2,0,2,0,2,0,0,1,0,1,0,1,0,0,2,0,2,0,2,0,0,1,0,1,0,0,2,0,0,0,0,0,0,2,0,2,0,0,1,0,1,0,0,2,0,0,0,2,0,0,1,0,0,1,0,1,0,0,0,0,0,2,0,2,0,0,1,0,0,0,0,0,0,0,0,0,0,0,0,0,0,0,0,0,0,0,0,0,0,0,0,0,0,0,0,0,0,1,0,1,0,0,2,0,2],
[0,2,0,2,0,2,2,0,0,0,1,0,1,0,0,2,0,2,0,0,1,0,1,0,1,0,0,1,0,0,2,0,2,0,2,0,0,1,1,0,0,1,0,0,0,1,0,0,2,0,2,0,2,0,0,1,0,0,1,0,0,0,0,1,0,0,2,0,2,0,0,0,0,0,0,1,0,1,0,0,1,0,0,2,0,2,0,2,0,0,1,0,0,1,0,0,2,0,2,0,0,1,0,1,0,0,0,0,0,0,2,0,2,0,2,0,0,1,0,0,1,0,0,0,1,0,0,1,0,0,2,0,2,0,2,0,0,0,1,0,1,0,0,2,0,0,0,0,0,0,0,0,0,0,0,0,0,0,0,0,0,0,0,0,0,0,0,0,0,0,0,0,0,0,2,0,2,0,0,1,0,1],
[0,1,0,1,0,1,0,1,0,0,2,0,2,0,2,0,2,0,0,1,0,1,0,0,0,0,2,0,2,0,2,0,2,0,0,1,0,1,0,1,0,0,2,0,2,0,2,0,2,0,0,0,0,1,0,1,0,0,0,0,1,0,1,0,0,0,2,0,2,0,0,0,0,0,0,2,0,2,0,0,1,0,1,0,1,0,0,2,0,2,0,2,0,2,0,0,1,0,1,0,0,2,0,2,0,0,0,0,0,0,1,0,1,0,0,1,0,0,2,0,2,0,0,0,0,0,2,0,0,1,0,0,1,0,1,0,0,0,0,2,0,2,0,2,0,0,0,0,0,0,0,0,0,0,0,0,0,0,0,0,0,0,0,0,0,0,0,0,0,0,0,0,0,0,1,0,1,0,0,1,0,1],
[0,0,2,0,2,0,2,0,2,0,0,1,0,0,1,0,0,2,0,2,0,2,0,0,1,0,1,0,1,0,1,0,0,2,0,2,0,2,0,0,1,0,1,0,0,0,0,1,0,1,0,0,2,0,2,0,2,0,2,0,0,1,0,0,0,0,0,0,1,0,0,0,0,0,0,2,0,2,0,2,0,2,0,0,0,1,0,1,0,0,2,0,2,0,2,0,0,1,0,1,0,1,0,1,0,0,0,0,0,0,2,0,2,0,0,0,1,0,1,0,1,0,0,0,0,0,1,0,0,0,2,0,2,0,2,0,0,0,1,1,0,1,0,1,0,0,0,0,0,0,0,0,0,0,0,0,0,0,0,0,0,0,0,0,0,0,0,0,0,0,0,0,0,0,2,0,2,0,0,1,0,1],
[0,1,0,0,1,0,0,2,0,2,0,0,1,0,1,0,1,0,0,2,2,0,2,0,2,0,0,1,0,1,0,0,1,0,0,2,0,2,0,2,0,0,1,0,0,0,1,0,0,1,0,0,0,2,0,2,0,2,0,2,0,2,0,0,1,0,0,1,0,0,0,0,0,0,0,1,0,0,0,1,0,0,2,0,2,0,2,0,0,1,0,0,1,0,0,1,0,0,0,2,0,2,0,2,0,0,0,0,0,0,2,0,0,1,1,0,1,0,1,0,0,0,0,0,2,2,0,2,0,0,1,0,1,0,1,0,0,0,2,0,2,0,0,1,0,0,0,0,0,0,0,0,0,0,0,0,0,0,0,0,0,0,0,0,0,0,0,0,0,0,0,0,0,0,1,0,1,0,0,2,0,2],
[0,1,0,1,0,1,0,0,2,0,2,0,0,1,1,0,1,0,0,2,2,0,0,1,0,1,0,0,1,0,1,0,0,2,0,2,0,0,1,0,1,0,0,1,0,0,2,0,2,0,2,1,0,1,0,0,0,0,0,0,0,0,2,0,2,0,2,0,2,0,0,0,0,0,0,0,0,1,0,1,0,1,0,0,2,0,2,0,0,1,0,1,0,0,0,0,0,2,0,2,0,2,0,2,0,0,0,0,0,0,1,0,1,0,0,0,2,0,2,0,2,0,0,0,1,0,1,0,0,1,0,0,2,0,2,0,0,0,2,0,0,1,0,1,0,0,0,0,0,0,0,0,0,0,0,0,0,0,0,0,0,0,0,0,0,0,0,0,0,0,0,0,0,0,1,0,0,2,0,2,0,2],
[0,2,0,2,0,0,1,0,1,0,1,0,1,0,0,2,0,2,0,0,1,0,1,0,0,0,2,0,2,0,2,0,2,0,0,1,0,1,0,1,0,0,2,0,2,0,2,0,0,1,0,1,0,0,0,2,0,2,0,2,0,0,2,0,0,0,1,0,1,0,0,0,0,0,0,1,0,1,0,0,2,0,2,0,0,1,0,1,0,1,0,1,0,0,0,0,2,0,2,0,2,0,0,0,0,0,0,0,0,0,1,0,1,0,1,0,0,2,0,2,2,0,0,0,2,0,0,1,0,0,1,0,0,2,0,0,0,0,0,2,0,2,0,2,0,0,0,0,0,0,0,0,0,0,0,0,0,0,0,0,0,0,0,0,0,0,0,0,0,0,0,0,0,0,0,1,0,1,0,1,0,1],
[0,0,0,1,0,0,1,0,1,0,0,0,2,0,2,0,2,0,2,0,0,1,0,1,0,0,1,0,0,2,0,2,0,2,0,2,0,0,0,0,1,0,1,0,0,2,0,2,2,0,2,0,0,1,0,1,0,0,2,0,2,2,0,0,1,0,1,0,1,0,0,0,0,0,0,2,0,2,0,0,0,1,0,0,1,0,1,0,0,0,1,0,0,2,0,2,0,0,0,1,0,1,0,1,0,0,0,0,0,0,2,0,2,0,2,0,0,0,1,0,1,0,0,0,1,0,0,1,0,0,2,0,2,0,2,0,0,0,1,0,1,0,0,1,0,0,0,0,0,0,0,0,0,0,0,0,0,0,0,0,0,0,0,0,0,0,0,0,0,0,0,0,0,0,1,0,0,2,0,2,0,2],
[0,1,0,1,0,1,0,0,2,0,2,0,2,0,2,0,0,0,1,0,0,0,1,0,0,2,0,2,0,2,0,0,1,1,0,0,2,0,2,0,2,0,0,0,1,0,0,1,0,1,0,0,2,0,2,0,0,1,0,1,0,0,1,0,0,0,2,0,2,0,0,0,0,0,0,2,0,2,0,0,1,0,1,0,0,2,0,2,0,2,0,0,0,0,1,0,1,0,0,1,0,1,0,1,0,0,0,0,0,0,2,0,2,0,0,1,0,1,0,1,0,0,0,0,2,0,2,0,2,0,0,1,0,1,0,0,0,0,1,0,0,2,0,2,0,0,0,0,0,0,0,0,0,0,0,0,0,0,0,0,0,0,0,0,0,0,0,0,0,0,0,0,0,0,2,0,2,0,0,1,0,1],
[0,2,0,2,0,2,0,0,1,0,1,0,0,0,2,0,2,0,2,0,2,0,0,1,0,1,0,1,0,1,0,0,2,0,2,0,2,0,2,0,0,1,0,1,0,1,0,0,2,0,2,0,0,0,1,0,0,1,0,1,0,1,0,0,2,0,2,0,2,0,0,0,0,0,0,1,0,0,0,1,0,0,1,0,0,2,0,2,0,2,0,0,1,0,1,0,1,0,0,2,0,2,0,2,0,0,0,0,0,0,1,0,1,0,0,0,0,2,0,2,0,0,0,0,0,1,0,1,0,0,2,0,2,0,0,0,0,0,0,1,0,1,0,1,0,0,0,0,0,0,0,0,0,0,0,0,0,0,0,0,0,0,0,0,0,0,0,0,0,0,0,0,0,0,2,0,2,0,0,1,0,1],
[0,1,0,0,0,1,0,1,0,0,0,2,0,2,0,0,1,0,0,1,0,1,0,1,0,0,0,2,2,0,2,0,0,1,0,1,0,0,2,0,2,0,2,0,2,0,0,0,1,0,0,1,0,0,1,0,0,2,0,2,0,2,0,2,0,0,1,0,1,0,0,0,0,0,0,1,0,1,0,0,2,0,2,0,2,0,0,1,0,1,0,1,0,1,0,0,0,2,0,2,0,2,0,2,0,0,0,0,0,0,1,0,1,0,0,2,0,2,0,2,0,0,0,0,1,0,1,0,0,0,2,0,2,0,2,0,0,0,0,0,1,0,1,0,0,0,0,0,0,0,0,0,0,0,0,0,0,0,0,0,0,0,0,0,0,0,0,0,0,0,0,0,0,0,1,0,1,0,0,2,0,2],
[0,1,0,0,1,0,0,1,0,1,0,0,0,2,0,2,0,2,0,0,2,0,0,0,1,0,1,0,1,0,1,0,0,2,0,2,0,2,0,2,0,0,1,0,1,0,1,0,1,0,0,2,0,2,0,2,0,0,0,1,0,1,0,1,0,0,1,0,1,0,0,0,0,0,0,0,0,0,2,0,2,0,2,0,0,1,0,1,0,1,0,1,0,0,2,0,2,0,2,0,0,1,0,1,0,0,0,0,0,0,1,0,0,2,0,2,0,2,0,2,0,0,0,0,0,1,0,0,0,1,0,0,2,0,2,0,0,0,2,0,2,0,0,1,0,0,0,0,0,0,0,0,0,0,0,0,0,0,0,0,0,0,0,0,0,0,0,0,0,0,0,0,0,0,1,0,0,2,0,2,0,2],
[0,0,0,1,0,1,0,1,0,0,2,0,2,0,2,0,2,0,0,0,1,0,1,0,0,1,0,1,0,0,2,0,2,0,2,0,0,1,0,1,0,0,0,2,0,2,0,2,0,0,1,0,0,1,0,0,1,0,0,0,0,0,2,0,2,0,2,0,2,0,0,0,0,0,0,1,0,1,0,1,0,1,0,0,2,0,2,0,2,0,0,1,0,1,0,0,2,0,2,0,2,0,0,1,0,0,0,0,0,0,1,0,1,0,1,0,0,0,2,0,2,0,0,0,2,0,2,0,0,0,1,0,1,0,1,0,0,0,1,0,0,2,0,2,0,0,0,0,0,0,0,0,0,0,0,0,0,0,0,0,0,0,0,0,0,0,0,0,0,0,0,0,0,0,1,0,1,0,0,2,0,2],
[0,2,0,2,0,2,0,2,0,0,0,1,0,1,0,1,0,0,2,0,2,0,2,0,2,0,0,0,1,0,1,0,0,1,0,0,1,0,0,0,2,0,2,0,0,1,0,0,1,0,1,0,1,0,0,0,2,0,2,2,0,0,1,0,0,1,0,0,1,0,0,0,0,0,0,2,0,2,0,2,0,0,1,0,1,0,1,0,0,2,0,2,0,2,0,2,0,0,0,1,0,1,0,1,0,0,0,0,0,0,1,0,0,0,0,0,2,0,2,0,2,0,0,0,2,0,0,0,1,0,1,0,1,0,1,0,0,0,0,2,0,2,0,2,0,0,0,0,0,0,0,0,0,0,0,0,0,0,0,0,0,0,0,0,0,0,0,0,0,0,0,0,0,0,2,0,0,1,0,1,0,1],
[0,1,0,1,0,1,0,0,2,0,2,0,0,0,1,0,1,0,1,0,1,0,0,2,0,2,0,2,0,2,0,0,1,0,1,0,0,0,0,1,0,0,2,0,2,0,2,0,2,0,0,0,0,1,0,1,0,1,0,0,2,0,2,2,0,0,1,0,1,0,0,0,0,0,0,1,0,1,0,0,2,0,2,0,2,2,0,0,1,1,0,0,2,0,2,0,2,0,2,0,0,1,0,0,0,0,0,0,0,0,1,0,1,0,1,0,0,2,0,2,0,0,0,0,0,0,0,2,0,2,0,2,0,0,0,0,0,0,1,0,1,0,0,2,0,0,0,0,0,0,0,0,0,0,0,0,0,0,0,0,0,0,0,0,0,0,0,0,0,0,0,0,0,0,2,0,0,1,0,1,0,1],
[0,2,0,2,0,2,0,0,1,0,0,1,0,0,0,1,0,1,0,0,2,0,2,0,2,0,0,1,0,1,0,1,0,0,1,0,0,2,0,2,0,2,0,0,1,0,0,1,0,0,2,0,2,0,2,0,0,1,0,1,0,1,0,0,2,0,2,0,2,0,0,0,0,0,0,1,0,1,0,0,0,0,2,0,2,0,0,1,0,1,0,0,1,0,0,2,0,2,0,2,0,0,0,1,0,0,0,0,0,0,1,0,1,0,0,2,0,2,2,0,2,0,0,0,1,0,0,0,0,1,0,0,1,0,1,0,0,0,2,0,2,0,2,0,0,0,0,0,0,0,0,0,0,0,0,0,0,0,0,0,0,0,0,0,0,0,0,0,0,0,0,0,0,0,2,0,0,1,0,1,0,1],
[0,2,0,2,0,2,0,2,0,0,1,0,0,1,0,1,0,1,0,0,2,0,2,0,0,1,0,1,0,1,0,0,2,0,2,0,0,0,1,0,1,0,0,0,1,0,1,0,0,2,2,0,2,0,2,0,0,1,0,1,0,1,0,0,2,0,2,0,2,0,0,0,0,0,0,1,0,1,0,1,0,0,0,2,0,2,0,2,0,2,0,0,0,0,0,1,0,0,1,0,0,1,0,1,0,0,0,0,0,0,2,0,0,2,0,2,0,0,1,0,1,0,0,0,0,2,0,2,0,0,1,0,1,0,1,0,0,0,2,0,2,0,0,0,0,0,0,0,0,0,0,0,0,0,0,0,0,0,0,0,0,0,0,0,0,0,0,0,0,0,0,0,0,0,1,0,1,0,0,2,0,2],
[0,1,1,0,0,0,0,0,0,2,0,2,0,0,2,0,2,0,2,0,0,1,0,1,0,1,0,0,2,0,2,0,0,1,0,1,0,0,0,2,0,2,0,2,0,0,1,0,1,0,1,0,0,2,0,2,0,2,0,2,0,0,1,0,1,0,1,0,1,0,0,0,0,0,0,2,0,2,0,2,0,0,1,0,1,0,0,2,0,2,0,2,0,0,1,0,0,1,0,1,0,0,0,1,0,0,0,0,0,0,2,0,2,0,2,0,0,0,0,1,0,0,0,0,0,1,0,1,0,1,0,0,2,0,2,0,0,0,2,0,0,1,0,1,0,0,0,0,0,0,0,0,0,0,0,0,0,0,0,0,0,0,0,0,0,0,0,0,0,0,0,0,0,0,2,0,2,0,0,1,0,1],
[0,2,0,0,2,0,2,0,0,1,0,0,1,0,1,0,0,1,0,0,0,2,0,2,0,2,0,2,0,0,1,0,1,0,1,0,0,2,0,2,0,0,1,0,1,0,0,2,0,2,0,0,1,0,0,1,0,0,0,2,0,2,0,2,0,0,1,0,1,0,0,0,0,0,0,1,0,1,0,0,0,2,0,2,0,2,0,0,0,0,1,0,1,0,0,0,1,0,1,0,0,2,0,2,0,0,0,0,0,0,0,0,2,0,2,0,0,1,0,1,1,0,0,0,0,2,0,2,0,2,0,0,1,0,1,0,0,0,2,0,2,0,2,2,0,0,0,0,0,0,0,0,0,0,0,0,0,0,0,0,0,0,0,0,0,0,0,0,0,0,0,0,0,0,0,1,0,1,0,1,0,1]
];

PR = [
[2,4,6,8,12,14,18,20,25,30,32,34,36,40,43,45,47,50,52,54,56,59,60,63,65,67,69,76,78,81,84,89,91,93,96,98,100,101,104,113,114,116,119,121,125,127,130,133,135,139,141,144,176,178,180,182],
[2,4,6,8,15,17,19,21,24,26,28,31,33,36,38,41,43,45,47,51,53,54,56,57,59,61,69,76,78,80,84,86,88,91,93,96,99,102,104,111,114,116,118,120,125,127,128,130,133,135,140,142,176,178,180,182],
[2,4,7,10,12,16,18,22,23,25,27,30,32,34,38,40,43,45,46,49,52,54,56,60,63,65,69,76,79,80,85,88,90,92,95,97,100,102,104,111,113,116,118,121,125,126,131,133,135,139,141,143,175,177,180,182],
[2,4,6,8,11,13,16,18,21,23,26,30,32,34,37,39,41,43,46,48,50,53,55,56,59,61,63,64,65,67,69,76,78,80,82,83,86,88,91,93,95,97,100,102,104,111,113,116,118,140,142,144,176,178,180,182],
[2,4,6,8,12,15,17,19,22,24,26,28,33,35,38,40,43,45,46,49,51,54,56,59,61,63,66,68,76,78,82,84,86,91,93,94,97,100,102,104,111,114,116,118,120,126,128,130,133,135,140,142,176,178,180,182],
[4,6,8,10,13,15,17,21,24,26,32,34,36,39,41,43,45,48,51,53,55,58,60,62,65,67,69,76,78,80,82,85,87,89,92,94,96,99,101,104,111,113,116,118,121,125,128,131,133,139,141,144,175,177,180,182],
[2,4,6,7,11,13,16,18,21,23,25,28,31,33,35,38,39,42,46,49,51,53,56,59,64,67,69,76,78,81,84,86,88,91,94,97,99,102,104,111,113,115,118,121,125,128,131,133,135,139,141,144,175,177,180,182],
[2,4,6,8,11,13,15,17,20,22,27,29,31,33,36,38,40,43,45,47,49,54,56,61,63,67,69,76,78,81,83,85,88,90,92,94,97,99,102,104,111,113,116,119,121,127,130,133,135,140,142,144,175,177,180,182],
[3,5,7,9,12,15,18,20,22,25,27,29,31,34,36,38,41,43,48,50,53,55,57,59,62,69,76,78,80,82,86,88,91,93,95,98,100,102,104,111,113,117,119,121,127,131,133,135,139,140,142,144,175,177,180,182],
[2,5,8,10,13,15,17,20,21,23,25,28,30,33,36,38,40,43,47,50,54,56,58,60,62,65,68,76,80,83,85,87,90,93,96,100,102,104,111,114,115,117,119,125,126,128,131,133,135,139,141,144,175,177,180,182],
[2,4,6,9,11,14,15,17,20,21,24,26,29,31,34,36,39,41,44,47,49,51,52,54,63,65,67,69,78,80,82,85,87,90,92,98,100,102,104,111,113,117,119,121,125,127,130,133,135,139,142,144,175,178,180,182],
[2,4,7,9,11,13,16,18,21,23,27,29,31,33,36,38,40,43,45,47,50,52,56,58,60,63,67,69,76,78,81,83,86,88,90,92,97,99,101,111,113,115,118,120,121,125,128,131,134,140,142,144,176,178,180,182],
[4,7,9,13,15,17,19,22,24,27,30,32,34,36,41,43,46,48,49,51,54,56,59,61,62,65,67,69,76,78,82,85,87,91,94,96,100,102,104,111,113,115,119,121,125,128,131,133,135,139,141,144,175,178,180,182],
[2,4,6,9,11,13,15,19,23,26,28,30,33,34,37,39,41,45,48,50,53,55,58,60,63,67,69,76,78,81,83,86,88,90,95,97,100,102,104,111,113,116,118,120,125,127,129,132,134,139,142,144,175,177,180,182],
[2,4,6,9,11,15,17,19,21,24,26,28,30,33,35,37,39,42,44,46,49,51,55,58,60,62,65,67,69,76,80,83,86,88,90,93,95,97,100,102,104,111,113,118,120,126,128,131,133,140,142,144,175,177,180,182],
[2,6,8,12,14,17,20,22,24,28,29,31,34,36,39,41,43,45,49,52,55,58,60,62,64,67,69,76,78,81,83,85,88,90,92,94,98,100,102,104,111,113,116,118,120,125,127,131,133,135,141,143,175,177,180,182],
[2,5,8,10,14,16,18,21,25,27,29,31,34,36,38,40,43,45,47,49,52,54,56,60,62,64,67,69,79,81,83,86,88,90,92,95,97,99,102,104,111,114,116,118,120,126,130,133,135,139,141,144,175,178,180,182],
[4,6,8,11,13,15,17,21,23,26,28,31,33,35,38,40,44,46,48,51,54,57,63,65,67,69,76,78,80,82,85,87,89,92,94,97,99,101,104,111,113,115,119,121,125,127,131,133,135,139,142,144,175,177,180,182],
[2,4,6,8,12,14,16,19,21,23,25,29,31,34,37,41,43,46,49,51,53,57,59,60,63,66,69,76,78,80,83,85,87,90,92,94,96,100,102,104,111,117,119,121,125,129,131,133,135,140,142,144,175,178,180,182],
[2,4,6,9,11,15,17,19,21,24,26,28,30,33,35,40,43,45,47,49,54,56,58,61,63,64,67,69,76,78,81,83,85,86,89,90,93,95,97,99,102,111,113,115,118,120,128,130,132,139,141,144,175,178,180,182],
[2,4,6,9,12,16,18,21,23,25,28,30,32,35,38,40,42,45,48,51,53,55,58,60,62,65,67,69,76,78,83,85,88,90,93,96,98,100,104,111,113,116,118,119,121,125,130,133,135,139,141,143,175,178,180,182],
[2,4,6,8,11,14,16,18,21,23,26,28,30,33,35,39,41,45,47,50,51,53,55,58,60,62,65,67,69,76,78,80,84,86,88,90,96,99,102,104,111,114,116,119,121,126,128,131,133,135,139,141,175,177,180,182],
[2,3,10,12,15,17,19,22,24,26,29,31,34,36,40,42,44,47,49,51,54,56,58,60,63,65,67,69,76,78,80,83,85,88,90,92,95,98,100,104,111,113,115,120,126,128,130,133,135,139,142,144,175,177,180,182],
[2,5,7,10,13,15,18,22,24,26,28,31,33,35,38,40,43,45,48,50,53,56,60,62,64,67,69,76,78,82,84,86,91,93,97,99,102,104,113,115,118,120,121,126,128,130,133,135,139,141,143,144,176,178,180,182]
];

NativeSolution = [
[0,21,0,15,0,7,0,5,0,0,0,-19,0,-22,0,0,0,4,0,9,0,0,0,0,19,0,0,0,0,-21,0,-3,0,-14,0,-23,0,0,0,3,0,0,12,0,20,0,2,0,0,-9,0,-11,0,-18,0,-20,0,0,4,10,0,0,-3,0,-6,0,-4,0,-16,0,0,0,0,0,0,14,0,23,0,0,16,0,0,22,0,0,0,0,-6,0,-13,0,-15,0,0,13,0,11,0,3,18,0,0,-14,0,0,0,0,0,0,0,0,-12,-10,0,-8,0,0,21,0,8,0,0,0,6,0,14,0,0,-17,0,0,-2,0,-5,0,0,0,6,0,17,0,0,24,0,0,0,0,0,0,0,0,0,0,0,0,0,0,0,0,0,0,0,0,0,0,0,0,0,0,0,0,0,0,0,-4,0,-21,0,-24,0,-7],
[0,-17,0,-14,0,-6,0,-17,0,0,0,0,0,0,23,0,15,0,23,0,15,0,0,-23,0,-15,0,-22,0,0,12,0,18,0,0,9,0,10,0,0,-11,0,-10,0,-24,0,-1,0,0,0,11,0,21,5,0,5,19,0,13,0,20,0,0,0,0,0,0,0,-13,0,0,0,0,0,0,-18,0,-16,0,-15,0,0,0,24,0,7,0,14,0,0,-5,0,-5,0,0,6,0,0,12,0,0,-19,0,-23,0,0,0,0,0,0,-3,0,0,22,0,17,0,16,0,17,0,0,0,0,-21,0,-9,-12,0,-8,0,0,1,0,3,0,0,0,0,4,0,8,0,0,0,0,0,0,0,0,0,0,0,0,0,0,0,0,0,0,0,0,0,0,0,0,0,0,0,0,0,0,0,0,0,-12,0,-20,0,-7,0,-4],
[0,5,0,4,0,0,9,0,0,-6,0,-21,0,0,0,12,0,7,0,0,0,-23,-4,0,-9,0,-13,0,0,14,0,1,0,11,0,0,0,-18,0,-1,0,0,6,0,16,13,0,0,8,0,0,-16,0,-20,0,-7,0,0,0,6,0,0,1,0,15,0,0,0,-19,0,0,0,0,0,0,-24,0,0,17,19,0,0,0,0,18,0,0,-12,0,-10,0,-11,0,0,4,0,20,0,0,-1,0,-14,0,-17,0,0,0,0,0,0,2,0,14,0,0,-4,0,-14,0,0,21,0,0,0,10,22,0,0,0,0,-6,0,-5,0,-2,0,0,0,23,0,24,0,21,0,0,0,0,0,0,0,0,0,0,0,0,0,0,0,0,0,0,0,0,0,0,0,0,0,0,0,0,0,0,0,-8,0,-22,0,0,-15,0,-21],
[0,-20,0,-3,0,-14,0,-6,0,0,18,0,8,0,0,-21,0,-1,0,0,21,0,3,0,0,14,0,0,0,-22,0,-6,0,-23,0,0,14,0,6,0,19,0,16,0,0,-7,0,-9,0,-12,0,0,7,0,9,17,0,0,-1,0,-8,0,-19,24,21,0,1,0,22,0,0,0,0,0,0,-21,0,-11,0,-18,0,-13,10,0,0,20,0,23,0,0,-24,0,-10,0,-3,0,-14,0,0,11,0,15,0,6,0,0,0,0,0,0,-16,0,-15,0,0,3,0,12,0,0,0,0,0,0,0,0,0,0,0,0,0,0,0,0,0,0,0,0,0,-2,0,-5,0,-17,0,0,0,0,0,0,0,0,0,0,0,0,0,0,0,0,0,0,0,0,0,0,0,0,0,0,0,0,0,0,0,1,0,5,0,13,0,2],
[0,-3,0,-8,0,-18,0,-1,0,0,0,23,0,0,15,0,23,0,15,0,0,-16,0,-11,0,-22,0,-15,0,0,0,0,12,0,18,0,0,9,0,10,0,0,-17,0,-21,-15,0,0,11,0,21,0,0,-2,0,-2,0,0,19,0,13,0,20,0,0,-19,0,-10,0,0,0,0,0,0,0,-7,0,-12,0,0,0,24,0,7,0,14,0,0,0,0,2,0,2,6,0,0,12,0,0,-13,0,-20,0,-9,0,0,0,0,0,0,-12,0,0,17,0,22,0,17,0,16,0,0,0,0,0,-17,0,-6,0,-23,0,0,3,0,1,0,0,0,0,8,0,4,0,0,0,0,0,0,0,0,0,0,0,0,0,0,0,0,0,0,0,0,0,0,0,0,0,0,0,0,0,0,0,0,0,-24,0,-4,0,-23,0,-14],
[0,0,0,22,0,2,0,4,0,3,0,0,-10,0,-9,0,-16,0,0,0,19,0,0,-15,0,-23,0,0,0,0,0,4,0,9,0,10,0,0,-4,0,-22,0,-3,0,-14,0,0,24,0,0,13,0,14,0,21,0,0,-14,0,-3,0,-21,0,0,1,0,14,0,21,0,0,0,0,0,0,-20,0,-7,0,-11,0,-18,0,0,20,0,18,0,1,0,0,-17,0,-5,0,-2,0,0,17,0,12,0,0,-4,0,0,0,0,0,0,-19,0,-21,0,0,16,0,15,0,0,-24,0,0,0,-1,0,0,5,0,0,3,0,11,0,0,0,0,0,-1,0,-13,0,0,8,0,0,0,0,0,0,0,0,0,0,0,0,0,0,0,0,0,0,0,0,0,0,0,0,0,0,0,0,0,0,7,0,23,0,0,-12,0,-8],
[0,-14,0,-13,0,-1,-12,0,0,0,14,0,18,0,0,-19,0,-3,0,0,22,0,19,0,21,0,0,24,0,0,-9,0,-10,0,-20,0,0,17,16,0,0,23,0,0,0,4,0,0,-16,0,-19,0,-4,0,0,3,0,0,9,0,0,0,0,16,0,0,-23,0,-9,0,0,0,0,0,0,5,0,6,0,0,12,0,0,-5,0,-2,0,-17,0,0,9,0,0,13,0,0,-24,0,-22,0,0,8,0,15,0,0,0,0,0,0,-21,0,-11,0,-18,0,0,20,0,0,11,0,0,0,19,0,0,10,0,0,-22,0,-10,0,-8,0,0,0,10,0,22,0,0,-15,0,0,0,0,0,0,0,0,0,0,0,0,0,0,0,0,0,0,0,0,0,0,0,0,0,0,0,0,0,0,-6,0,-16,0,0,2,0,1],
[0,19,0,5,0,15,0,22,0,0,-15,0,-4,0,-24,0,-20,0,0,11,0,24,0,0,0,0,-9,0,-11,0,-19,0,-14,0,0,13,0,24,0,21,0,0,-13,0,-17,0,-23,0,-3,0,0,0,0,23,0,10,0,0,0,0,4,0,12,0,0,0,-24,0,-12,0,0,0,0,0,0,-10,0,-18,0,0,20,0,16,0,11,0,0,-21,0,-20,0,-18,0,-16,0,0,18,0,20,0,0,-7,0,-13,0,0,0,0,0,0,9,0,13,0,0,1,0,0,-22,0,-1,0,0,0,0,0,-11,0,0,2,0,0,17,0,7,0,0,0,0,-5,0,-2,0,-6,0,0,0,0,0,0,0,0,0,0,0,0,0,0,0,0,0,0,0,0,0,0,0,0,0,0,0,0,0,0,3,0,14,0,0,18,0,6],
[0,0,-23,0,-17,0,-3,0,-15,0,0,16,0,0,6,0,0,-22,0,-1,0,-13,0,0,3,0,8,0,23,0,7,0,0,-6,0,-2,0,-5,0,0,16,0,20,0,0,0,0,4,0,1,0,0,-24,0,-4,0,-18,0,-7,0,0,10,0,0,0,0,0,0,7,0,0,0,0,0,0,-12,0,-20,0,-10,0,-11,0,0,0,22,0,15,0,0,-7,0,-21,0,-14,0,0,21,0,10,0,24,0,5,0,0,0,0,0,0,-8,0,-16,0,0,0,19,0,11,0,12,0,0,0,0,0,2,0,0,0,-19,0,-19,0,-22,0,0,0,17,19,0,14,0,18,0,0,0,0,0,0,0,0,0,0,0,0,0,0,0,0,0,0,0,0,0,0,0,0,0,0,0,0,0,0,-16,0,-10,0,0,22,0,13],
[0,15,0,0,24,0,0,-18,0,-24,0,0,6,0,13,0,18,0,0,-16,-12,0,-14,0,-17,0,0,16,0,20,0,0,7,0,0,-6,0,-2,0,-5,0,0,2,0,0,0,12,0,0,22,0,0,0,-11,0,-8,0,-22,0,-1,0,-9,0,0,22,0,0,5,0,0,0,0,0,0,0,8,0,0,0,9,0,0,-4,0,-19,0,-13,0,0,3,0,0,4,0,0,21,0,0,0,-9,0,-22,0,-21,0,0,0,0,0,0,-15,0,0,1,23,0,11,0,19,0,0,0,0,0,-3,-23,0,-7,0,0,16,0,7,0,17,0,0,0,-7,0,-16,0,0,14,0,0,0,0,0,0,0,0,0,0,0,0,0,0,0,0,0,0,0,0,0,0,0,0,0,0,0,0,0,0,19,0,9,0,0,-19,0,-20],
[0,24,0,21,0,19,0,0,-12,0,-22,0,0,17,18,0,13,0,0,-8,-18,0,0,5,0,20,0,0,8,0,16,0,0,-3,0,-16,0,0,15,0,2,0,0,23,0,0,-17,0,-5,0,-2,1,0,10,0,0,0,0,0,0,0,0,-23,0,-13,0,-20,0,-24,0,0,0,0,0,0,0,0,4,0,6,0,9,0,0,-8,0,-19,0,0,22,0,3,0,0,0,0,0,-1,0,-4,0,-13,0,-18,0,0,0,0,0,0,13,0,7,0,0,0,-10,0,-9,0,-7,0,0,0,12,0,8,0,0,24,0,0,-6,0,-21,0,0,0,-20,0,0,18,0,20,0,0,0,0,0,0,0,0,0,0,0,0,0,0,0,0,0,0,0,0,0,0,0,0,0,0,0,0,0,0,14,0,0,-24,0,-14,0,-15],
[0,-16,0,-18,0,0,7,0,11,0,20,0,14,0,0,-3,0,-21,0,0,10,0,22,0,0,0,-17,0,-17,0,-2,0,-5,0,0,17,0,21,0,23,0,0,-1,0,-22,0,-10,0,0,4,0,17,0,0,0,-24,0,-20,0,-15,0,0,-8,0,0,0,18,0,8,0,0,0,0,0,0,9,0,5,0,0,-7,0,-19,0,0,15,0,3,0,19,0,23,0,0,0,0,-5,0,-2,0,-6,0,0,0,0,0,0,0,0,0,5,0,1,0,24,0,0,-4,0,-23,-9,0,0,0,-11,0,0,2,0,0,15,0,0,-14,0,0,0,0,0,-15,0,-23,0,-13,0,0,0,0,0,0,0,0,0,0,0,0,0,0,0,0,0,0,0,0,0,0,0,0,0,0,0,0,0,0,0,2,0,13,0,6,0,16],
[0,0,0,7,0,0,24,0,20,0,0,0,-24,0,-10,0,-11,0,-20,0,0,9,0,24,0,0,3,0,0,-15,0,-21,0,-19,0,-8,0,0,0,0,14,0,8,0,0,-3,0,-14,-23,0,-6,0,0,17,0,23,0,0,-2,0,-5,-17,0,0,11,0,22,0,2,0,0,0,0,0,0,-16,0,-22,0,0,0,4,0,0,16,0,10,0,0,0,1,0,0,-7,0,-1,0,0,0,5,0,11,0,8,0,0,0,0,0,0,-11,0,-8,0,-20,0,0,0,18,0,19,0,0,0,18,0,0,20,0,0,-18,0,-24,0,-18,0,0,0,21,0,6,0,0,12,0,0,0,0,0,0,0,0,0,0,0,0,0,0,0,0,0,0,0,0,0,0,0,0,0,0,0,0,0,0,15,0,0,-12,0,-4,0,-9],
[0,7,0,2,0,4,0,0,-21,0,-7,0,-12,0,-20,0,0,0,19,0,0,0,10,0,0,-4,0,-21,0,-3,0,0,8,1,0,0,-4,0,-22,0,-13,0,0,0,6,0,0,13,0,24,0,0,-6,0,-15,0,0,6,0,23,0,0,18,0,0,0,-6,0,-23,0,0,0,0,0,0,-1,0,-24,0,0,17,0,21,0,0,-5,0,-2,0,-17,0,0,0,0,9,0,4,0,0,16,0,3,0,1,0,0,0,0,0,0,-18,0,-3,0,0,21,0,3,0,15,0,0,0,0,-16,0,-1,0,-19,0,0,20,0,12,0,0,0,0,22,0,0,-9,0,-10,0,0,0,0,0,0,0,0,0,0,0,0,0,0,0,0,0,0,0,0,0,0,0,0,0,0,0,0,0,0,-11,0,-8,0,0,11,0,5],
[0,-10,0,-1,0,-8,0,0,9,0,8,0,0,0,-5,0,-2,0,-5,0,-2,0,0,6,0,2,0,5,0,13,0,0,-20,0,-24,0,-19,0,-11,0,0,21,0,18,0,5,0,0,-17,0,-23,0,0,0,14,0,0,23,0,12,0,16,0,0,-3,0,-16,0,-17,0,0,0,0,0,0,23,0,0,0,2,0,0,17,0,0,-12,0,-9,0,-21,0,0,1,0,20,0,17,0,0,-23,0,-4,0,-7,0,0,0,0,0,0,10,0,4,0,0,0,0,-6,0,-14,0,0,0,0,0,24,0,22,0,0,-12,0,-22,0,0,0,0,0,0,12,0,19,0,7,0,0,0,0,0,0,0,0,0,0,0,0,0,0,0,0,0,0,0,0,0,0,0,0,0,0,0,0,0,0,-13,0,-18,0,0,3,0,11],
[0,12,0,0,0,21,0,19,0,0,0,-9,0,-19,0,0,6,0,0,10,0,5,0,20,0,0,0,-10,-19,0,-11,0,0,17,0,11,0,0,-7,0,-9,0,-4,0,-3,0,0,0,7,0,0,3,0,0,22,0,0,-21,0,-22,0,-15,0,-7,0,0,15,0,1,0,0,0,0,0,0,13,0,2,0,0,-1,0,-8,0,-13,0,0,22,0,23,0,19,0,8,0,0,0,-23,0,-14,0,-17,0,-22,0,0,0,0,0,0,4,0,9,0,0,-6,0,-2,0,-5,0,0,0,0,14,0,18,0,0,0,-10,0,-18,0,-24,0,0,0,0,0,10,0,24,0,0,0,0,0,0,0,0,0,0,0,0,0,0,0,0,0,0,0,0,0,0,0,0,0,0,0,0,0,0,0,9,0,7,0,0,-20,0,-12],
[0,2,0,0,9,0,0,2,0,23,0,0,0,-11,0,-22,0,-24,0,0,-20,0,0,0,10,0,12,0,12,0,18,0,0,-16,0,-12,0,-7,0,-18,0,0,5,0,8,0,11,0,15,0,0,-12,0,-13,0,-4,0,0,0,19,0,13,0,20,0,0,21,0,15,0,0,0,0,0,0,0,0,0,-3,0,-14,0,-15,0,0,24,0,7,0,14,0,6,0,0,-23,0,-15,0,-6,0,0,16,0,3,0,0,0,0,0,0,22,0,0,-5,0,-2,0,-5,0,-2,0,0,0,0,0,5,0,0,0,1,0,0,-8,0,-10,0,0,0,-9,0,-1,0,0,4,0,0,0,0,0,0,0,0,0,0,0,0,0,0,0,0,0,0,0,0,0,0,0,0,0,0,0,0,0,0,23,0,0,-19,0,-21,0,-23],
[0,0,0,12,0,5,0,10,0,0,-4,0,-7,0,-11,0,-10,0,0,0,11,0,21,0,0,24,0,20,0,0,-17,0,-2,0,-5,0,0,3,0,17,0,0,0,-15,0,-19,0,-21,0,0,22,0,0,1,0,0,9,0,0,0,0,0,-14,0,-23,0,-12,0,-20,0,0,0,0,0,0,2,0,8,0,4,0,6,0,0,-3,0,-6,0,-20,0,0,8,0,19,0,0,-8,0,-24,0,-1,0,0,11,0,0,0,0,0,0,14,0,23,0,7,0,0,0,-13,0,-22,0,0,0,-13,0,-16,0,0,0,13,0,16,0,13,0,0,0,24,0,0,-11,0,-9,0,0,0,0,0,0,0,0,0,0,0,0,0,0,0,0,0,0,0,0,0,0,0,0,0,0,0,0,0,0,20,0,15,0,0,-8,0,-24],
[0,-8,0,-20,0,-11,0,-16,0,0,0,1,0,16,0,7,0,0,-14,0,-6,0,-7,0,-1,0,0,0,16,0,8,0,0,13,0,0,15,0,0,0,-4,0,-24,0,0,18,0,0,20,0,7,0,22,0,0,0,-2,0,-5,-17,0,0,4,0,0,5,0,0,3,0,0,0,0,0,0,-22,0,-21,0,-3,0,0,12,0,10,0,11,0,0,-12,0,-16,0,-18,0,-22,0,0,0,21,0,2,0,24,0,0,0,0,0,0,6,0,0,0,0,0,-9,0,-10,0,-13,0,0,0,-7,0,0,0,14,0,9,0,9,0,23,0,0,0,0,-9,0,-15,0,-23,0,0,0,0,0,0,0,0,0,0,0,0,0,0,0,0,0,0,0,0,0,0,0,0,0,0,0,0,0,0,-10,0,0,17,0,10,0,22],
[0,4,0,19,0,22,0,0,-13,0,-12,0,0,0,14,0,8,0,13,0,17,0,0,-16,0,-11,0,-18,0,-10,0,0,15,0,7,0,0,0,0,24,0,0,-9,0,-1,0,-22,0,-19,0,0,0,0,3,0,1,0,12,0,0,-2,0,-5,-17,0,0,11,0,18,0,0,0,0,0,0,6,0,9,0,0,-8,0,-23,0,-6,-4,0,0,18,8,0,0,-24,0,-15,0,-3,0,-8,0,0,5,0,0,0,0,0,0,0,0,23,0,24,0,13,0,0,-7,0,-24,0,0,0,0,0,0,0,-13,0,-21,0,-14,0,0,0,0,0,0,11,0,21,0,0,-11,0,0,0,0,0,0,0,0,0,0,0,0,0,0,0,0,0,0,0,0,0,0,0,0,0,0,0,0,0,0,-18,0,0,2,0,16,0,10],
[0,-1,0,-11,0,-16,0,0,14,0,0,3,0,0,0,4,0,12,0,0,-4,0,-18,0,-7,0,0,14,0,1,0,13,0,0,22,0,0,-12,0,-8,0,-15,0,0,5,0,0,18,0,0,-5,0,-2,0,-6,0,0,16,0,24,0,6,0,0,-4,0,-17,0,-6,0,0,0,0,0,0,4,0,19,0,0,0,0,-14,0,-23,0,0,8,0,15,0,0,9,0,0,-10,0,-9,0,-19,0,0,0,10,0,0,0,0,0,0,7,0,6,0,0,-14,0,-24,-1,0,-3,0,0,0,2,0,0,0,0,20,0,0,23,0,11,0,0,0,-13,0,-20,0,-3,0,0,0,0,0,0,0,0,0,0,0,0,0,0,0,0,0,0,0,0,0,0,0,0,0,0,0,0,0,0,0,-22,0,0,1,0,17,0,3],
[0,-23,0,-6,0,-20,0,-8,0,0,11,0,0,1,0,17,0,9,0,0,-7,0,-12,0,0,5,0,2,0,4,0,0,-24,0,-21,0,0,0,14,0,6,0,0,0,12,0,20,0,0,-10,-18,0,-19,0,-16,0,0,10,0,16,0,24,0,0,-10,0,-13,0,-4,0,0,0,0,0,0,19,0,13,0,23,0,0,0,-1,0,-9,0,-16,0,-11,0,0,0,0,0,19,0,0,7,0,0,10,0,16,0,0,0,0,0,0,-17,0,0,-2,0,-5,0,0,8,0,18,0,0,0,0,-3,0,-15,0,0,7,0,15,0,9,0,0,0,-14,0,-7,0,0,0,0,0,0,0,0,0,0,0,0,0,0,0,0,0,0,0,0,0,0,0,0,0,0,0,0,0,0,0,0,0,21,0,3,0,0,-9,0,-19],
[0,22,9,0,0,0,0,0,0,-17,0,-5,0,0,-2,0,-5,0,-2,0,0,3,0,2,0,6,0,0,-9,0,-24,0,0,4,0,1,0,0,0,-12,0,-7,0,-11,0,0,8,0,13,0,15,0,0,-8,0,-13,0,-15,0,-14,0,0,11,0,18,0,7,0,14,0,0,0,0,0,0,-15,0,-1,0,-22,0,0,20,0,21,0,0,-4,0,-16,0,-12,0,0,17,0,0,16,0,15,0,0,0,2,0,0,0,0,0,0,-20,0,-18,0,-10,0,0,0,0,12,0,0,0,0,0,10,0,24,0,5,0,0,-21,0,-19,0,0,0,-3,0,0,12,0,19,0,0,0,0,0,0,0,0,0,0,0,0,0,0,0,0,0,0,0,0,0,0,0,0,0,0,0,0,0,0,-17,0,-6,0,0,5,0,17],
[0,-11,0,0,-10,0,-13,0,0,10,0,0,13,0,8,0,0,17,0,0,0,-8,0,-13,0,-18,0,-7,0,0,23,0,22,0,15,0,0,-8,0,-20,0,0,19,0,2,0,0,-6,0,-14,0,0,9,0,0,12,0,0,0,-21,0,-22,0,-4,0,0,8,0,11,0,0,0,0,0,0,3,0,14,0,0,0,-5,0,-2,0,-17,0,0,0,0,4,0,20,0,0,0,7,0,18,0,0,-9,0,-19,0,0,0,0,0,0,0,0,-20,0,-12,0,0,21,0,20,6,0,0,0,0,-15,0,-23,0,-11,0,0,13,0,16,0,0,0,-18,0,-3,0,-16,-1,0,0,0,0,0,0,0,0,0,0,0,0,0,0,0,0,0,0,0,0,0,0,0,0,0,0,0,0,0,0,0,5,0,11,0,1,0,18]
];

TeamsDist = [
40407,93974,45057,40129,92170,51857,44276,36790,43173,48445,47984,47560,34038,39905,46884,41385,52364,39497,50797,33564,40190,42072,42731,37132];

